(declare-const delta_y Int)
(declare-const delta___cost Int)
(declare-const delta_n Int)
(assert (exists
         ((|n'?1| Int) (|S1,1?2| Real) (|y'?3| Int) (|S1,0?4| Real)
            (|__cost'?5| Int) (KSUM1?6 Int) (|K1,0?7| Int) (K?8 Int)
            (|y'?9| Int) (|__cost'?10| Int) (y?11 Int) (n?12 Int)
            (__cost?13 Int))
         (and (< n?12 0) (<= (- K?8) 0) (<= (- |K1,0?7|) 0)
                (= (+ |K1,0?7| (- K?8)) 0) (<= (+ KSUM1?6 (- K?8)) 0)
                (= (+ (- |S1,0?4|) |__cost'?5| (- |K1,0?7|)) 0)
                (= (+ (- |S1,1?2|) |y'?3| (* 100 |K1,0?7|)) 0)
                (= (+ (- KSUM1?6) |K1,0?7|) 0)
                (= (+ (- __cost?13) |S1,0?4|) 0)
                (= (+ (- y?11) |S1,1?2| -1000) 0)
                (or (and (= K?8 0) (= (+ y?11 (- |y'?3|) 1000) 0)
                           (= (+ __cost?13 (- |__cost'?5|)) 0))
                      (and (<= (+ (- K?8) 1) 0) (<= (- __cost?13) 0)
                             (<= (+ (- y?11) -900) 0)
                             (<= (+ (- |__cost'?5|) 1) 0) (<= (- |y'?3|) 0)))
                (= (+ (- __cost?13) |__cost'?5| (- K?8)) 0)
                (= (+ (- y?11) |y'?3| (* 100 K?8) -1000) 0) (<= (- K?8) 0)
                (< (+ |y'?3| -100) 0) (= (+ |y'?9| (- |y'?3|)) 0)
                (= (+ |n'?1| (- n?12) -1) 0)
                (= (+ |__cost'?10| (- |__cost'?5|)) 0)
                (= delta___cost (+ |__cost'?10| (- __cost?13)))
                (= delta_n (+ |n'?1| (- n?12)))
                (= delta_y (+ |y'?9| (- y?11))))))
(check-sat)
